c NeuroCodeBench 2.0 CNF formula with verdict Unsat
p cnf 34 34
-1 -20 -6 0
1 -26 5 -21 -8 0
-1 -20 6 0
1 26 -15 18 -4 0
1 -26 5 21 16 -19 -6 0
1 -26 5 21 16 -19 6 0
1 26 15 29 -21 7 -2 0
1 26 15 -29 -27 -6 0
1 -26 -5 9 23 0
1 26 15 -29 27 9 -18 0
1 26 15 -29 -27 6 0
1 -26 -5 9 -23 0
1 26 15 29 -21 -7 0
-1 20 7 31 0
1 26 -15 18 4 0
1 26 15 -29 27 9 18 0
1 26 15 29 21 0
1 -26 5 21 16 19 0
1 26 15 29 -21 7 2 17 23 0
1 -26 -5 -9 13 6 2 0
1 -26 -5 -9 -13 24 -6 11 0
1 -26 5 21 -16 0
1 26 15 29 -21 7 2 17 -23 0
1 -26 -5 -9 -13 -24 0
1 26 15 29 -21 7 2 -17 0
1 26 15 -29 27 -9 0
-1 20 7 -31 0
1 -26 5 -21 8 0
1 -26 -5 -9 -13 24 -6 -11 0
1 -26 -5 -9 -13 24 6 0
1 -26 -5 -9 13 -6 0
1 26 -15 -18 0
1 -26 -5 -9 13 6 -2 0
-1 20 -7 0
